2196716
2181322
2214833
2192817
2193105
2177711
2213587
2191571
2180880
2159122
2177269
2155511
2160225
2138467
2175033
2155822
2153275
2134064
2192070
2176676
2210187
2188171
2188459
2173065
2208941
2186925
2176234
2154476
2172623
2150865
2155579
2133821
2170387
2151176
2148629
2129418
2216687
2201293
2232508
2210492
2207903
2192509
2228385
2206369
2202563
2181493
2193779
2172709
2212041
2196647
2227862
2205846
2203257
2187863
2223739
2201723
2197917
2176847
2189133
2168063
2351135
2335741
2369252
2347236
2347524
2332130
2368006
2345990
2335299
2313541
2331688
2309930
2314644
2292886
2329452
2310241
2307694
2288483
2346489
2331095
2364606
2342590
2342878
2327484
2363360
2341344
2330653
2308895
2327042
2305284
2309998
2288240
2324806
2305595
2303048
2283837
2371106
2355712
2386927
2364911

SiradanCizelgeleme.py

